data;


param d:= 100;
param r:=5;
param p:=0.100000;
param M:=1000;
param U:=
         1         1       -1.543579e+00
         2         1        1.041611e+00
         3         1        4.270232e-01
         4         1        1.032261e+00
         5         1       -8.456904e-01
         6         1       -7.542839e-01
         7         1       -1.295963e-01
         8         1        6.607183e-01
         9         1       -6.225306e-01
        10         1        1.499533e+00
        11         1       -4.804882e-01
        12         1        5.114513e-01
        13         1       -3.628632e-01
        14         1       -2.284742e-01
        15         1        4.283152e-01
        16         1       -1.108564e+00
        17         1       -1.172029e+00
        18         1       -1.282975e+00
        19         1        2.758342e-01
        20         1       -2.861178e-02
        21         1       -3.268836e-01
        22         1        2.151616e+00
        23         1        5.887704e-01
        24         1       -1.415084e-01
        25         1       -2.478844e-01
        26         1        8.308460e-01
        27         1       -2.223300e+00
        28         1       -5.246373e-01
        29         1        2.295240e-01
        30         1        3.445563e-01
        31         1        2.235127e-01
        32         1       -5.236216e-01
        33         1       -1.035658e+00
        34         1        7.570089e-01
        35         1        5.784511e-01
        36         1       -1.335112e-01
        37         1       -4.294563e-01
        38         1        1.645965e+00
        39         1        2.310393e-01
        40         1       -2.031210e-01
        41         1        1.922359e+00
        42         1        3.553443e-01
        43         1        2.282426e+00
        44         1        3.694318e-01
        45         1        2.937557e-01
        46         1        1.115354e+00
        47         1        5.856038e-01
        48         1        5.748362e-01
        49         1        2.384540e+00
        50         1       -7.985488e-01
        51         1       -1.732849e+00
        52         1       -2.378028e-01
        53         1       -1.839632e-02
        54         1       -5.589254e-01
        55         1        1.425483e+00
        56         1       -4.783690e-01
        57         1       -1.098172e+00
        58         1        1.313736e+00
        59         1        4.988291e-02
        60         1        1.529989e-01
        61         1       -1.275978e+00
        62         1        1.149451e-01
        63         1       -7.822513e-01
        64         1       -3.575613e-02
        65         1        9.469216e-01
        66         1       -8.707798e-01
        67         1       -6.392324e-01
        68         1        1.256836e+00
        69         1       -5.133187e-02
        70         1        3.260173e-01
        71         1       -7.788262e-01
        72         1        1.408369e+00
        73         1       -6.811580e-01
        74         1        1.958420e+00
        75         1       -1.025946e+00
        76         1       -2.605348e-02
        77         1        4.701947e-01
        78         1       -1.885316e+00
        79         1       -8.364605e-01
        80         1       -9.518924e-01
        81         1        1.698645e+00
        82         1        7.287512e-01
        83         1       -7.547644e-01
        84         1       -1.412727e+00
        85         1       -4.929988e-01
        86         1        7.733949e-01
        87         1        9.095297e-01
        88         1       -8.774888e-01
        89         1       -5.054035e-01
        90         1       -1.251204e+00
        91         1       -5.932629e-01
        92         1        1.107841e+00
        93         1       -3.760505e-01
        94         1       -1.398232e+00
        95         1       -1.821474e+00
        96         1       -2.244828e-01
        97         1        1.053517e+00
        98         1       -1.450807e+00
        99         1       -1.286920e+00
       100         1        1.139762e+00
         1         2        2.805907e+00
         2         2        1.850628e+00
         3         2       -5.590974e-01
         4         2       -7.225721e-01
         5         2       -3.896632e-01
         6         2       -1.189028e+00
         7         2       -7.520158e-01
         8         2        1.278527e+00
         9         2       -1.137665e-01
        10         2       -4.419424e-01
        11         2       -5.743755e-01
        12         2        2.144921e-01
        13         2       -1.596359e+00
        14         2       -3.783201e-01
        15         2        5.222147e-01
        16         2       -1.026526e+00
        17         2        5.734336e-01
        18         2        9.580946e-01
        19         2       -7.716380e-01
        20         2        9.530959e-01
        21         2       -4.083160e-01
        22         2       -7.296678e-01
        23         2        5.193150e-01
        24         2       -2.037919e+00
        25         2        1.298444e+00
        26         2        2.176332e+00
        27         2        1.145698e+00
        28         2        4.520661e-01
        29         2       -1.165763e-01
        30         2        1.324684e-01
        31         2       -1.475323e+00
        32         2       -3.468762e+00
        33         2        2.168903e+00
        34         2       -3.245665e-01
        35         2        1.162826e+00
        36         2       -4.871898e-01
        37         2        1.438927e-01
        38         2        3.338899e-02
        39         2       -2.378516e+00
        40         2        4.848668e-01
        41         2        3.140101e-01
        42         2        7.045035e-02
        43         2       -1.664649e+00
        44         2       -1.085378e-01
        45         2        4.456275e-01
        46         2        1.643707e+00
        47         2        1.871849e-01
        48         2        9.085368e-01
        49         2        5.269499e-01
        50         2        1.198582e+00
        51         2       -1.152473e+00
        52         2        8.263077e-01
        53         2       -1.065979e-01
        54         2       -2.076970e-01
        55         2       -7.976023e-01
        56         2       -1.562445e+00
        57         2       -3.684495e-01
        58         2       -1.159857e+00
        59         2       -5.357564e-01
        60         2        1.165356e+00
        61         2        8.160798e-01
        62         2        5.860370e-02
        63         2        1.766600e+00
        64         2        7.093972e-01
        65         2       -1.344663e+00
        66         2       -9.244473e-01
        67         2        1.258619e+00
        68         2        8.648241e-01
        69         2        5.167524e-01
        70         2       -1.724928e+00
        71         2        1.037365e+00
        72         2       -3.840500e-01
        73         2        9.481842e-01
        74         2       -1.619342e+00
        75         2        1.556735e+00
        76         2        1.563162e+00
        77         2       -6.661640e-01
        78         2        1.500866e+00
        79         2        1.030105e+00
        80         2        1.375272e-02
        81         2       -1.207231e-03
        82         2       -7.825617e-01
        83         2        8.226122e-01
        84         2        7.262481e-01
        85         2        3.232487e-01
        86         2        2.245323e+00
        87         2       -3.517982e-02
        88         2        5.502190e-03
        89         2       -4.096078e-01
        90         2       -8.116940e-01
        91         2       -1.914258e-01
        92         2       -4.308405e-01
        93         2        4.561721e-01
        94         2        5.904175e-01
        95         2       -2.209948e-01
        96         2       -9.812476e-01
        97         2       -1.556819e-01
        98         2        8.893645e-02
        99         2       -1.471632e-01
       100         2        1.413412e+00
         1         3       -2.157674e-01
         2         3       -3.985626e-01
         3         3        5.473788e-01
         4         3        2.178191e+00
         5         3       -8.941857e-01
         6         3        1.339476e+00
         7         3        1.495726e+00
         8         3       -1.115157e+00
         9         3       -9.232028e-01
        10         3       -1.276592e+00
        11         3        9.364054e-01
        12         3        2.517197e-01
        13         3        3.225543e-01
        14         3       -4.084708e-01
        15         3       -3.115870e-01
        16         3        1.748029e+00
        17         3        9.145593e-01
        18         3        5.717276e-01
        19         3        2.923060e+00
        20         3        1.359398e-01
        21         3        9.569762e-01
        22         3       -5.676257e-01
        23         3       -1.075971e+00
        24         3        5.103034e-01
        25         3       -2.014676e+00
        26         3       -3.078046e-01
        27         3        1.371888e+00
        28         3       -1.113804e+00
        29         3        2.170571e+00
        30         3        6.681902e-01
        31         3        5.555238e-01
        32         3       -9.830116e-01
        33         3       -1.614719e-01
        34         3        3.096708e-01
        35         3       -4.907345e-01
        36         3       -2.469576e-01
        37         3       -1.090185e+00
        38         3        1.796056e-01
        39         3        1.351863e-01
        40         3       -2.001266e+00
        41         3        8.820194e-01
        42         3        1.163897e+00
        43         3       -6.319834e-01
        44         3        4.720349e-01
        45         3       -9.497384e-01
        46         3       -3.260940e-01
        47         3       -1.826807e-01
        48         3        6.900925e-01
        49         3        1.223587e+00
        50         3       -6.459194e-01
        51         3        2.195360e-01
        52         3        8.946879e-02
        53         3       -7.859183e-01
        54         3        2.399366e-01
        55         3        1.369302e-01
        56         3       -2.601606e+00
        57         3        5.730497e-01
        58         3        5.672875e-01
        59         3       -8.373860e-03
        60         3        1.011791e+00
        61         3       -1.031401e+00
        62         3        2.110176e+00
        63         3        1.507443e+00
        64         3       -2.275711e-01
        65         3        1.130543e+00
        66         3        4.191076e-01
        67         3       -1.553686e+00
        68         3        1.404784e+00
        69         3       -5.117919e-01
        70         3       -1.264121e+00
        71         3        4.808355e-02
        72         3       -1.028878e+00
        73         3        7.500573e-01
        74         3       -1.054038e-01
        75         3       -1.290615e+00
        76         3       -5.573844e-01
        77         3       -8.558318e-01
        78         3       -9.297024e-01
        79         3        1.379009e+00
        80         3       -9.735698e-01
        81         3       -3.122404e-01
        82         3       -2.162131e-01
        83         3       -5.063642e-01
        84         3        8.894057e-01
        85         3        1.118680e+00
        86         3       -4.234424e-02
        87         3       -8.510990e-01
        88         3       -7.982900e-01
        89         3        2.837003e-01
        90         3        3.212748e+00
        91         3       -8.825605e-01
        92         3       -7.848209e-01
        93         3       -5.361545e-01
        94         3        2.069032e+00
        95         3        1.063510e-01
        96         3        3.687771e-01
        97         3       -7.081344e-01
        98         3       -2.959983e-01
        99         3        1.136949e+00
       100         3       -2.173791e+00
         1         4       -1.369830e+00
         2         4       -7.591159e-01
         3         4       -2.662894e+00
         4         4        4.667125e-01
         5         4        3.061379e-01
         6         4        2.741610e-01
         7         4        1.239456e+00
         8         4        7.217248e-01
         9         4       -1.982843e-01
        10         4       -1.080293e-01
        11         4       -1.178553e+00
        12         4        1.971592e-01
        13         4       -9.518568e-01
        14         4       -1.104692e+00
        15         4        2.271432e-03
        16         4       -1.105177e+00
        17         4       -1.019505e+00
        18         4       -1.183755e+00
        19         4       -1.545055e+00
        20         4        9.067196e-01
        21         4       -4.347038e-01
        22         4       -9.340292e-02
        23         4       -7.983515e-01
        24         4        1.217273e+00
        25         4       -4.311031e-01
        26         4       -6.214375e-01
        27         4        2.790628e-02
        28         4       -1.129898e+00
        29         4       -5.903320e-01
        30         4       -9.879043e-01
        31         4        1.318481e-01
        32         4       -7.297597e-01
        33         4       -8.924696e-02
        34         4       -7.388943e-02
        35         4        1.092504e+00
        36         4       -1.296271e+00
        37         4       -1.644376e+00
        38         4        1.432217e-01
        39         4        1.072026e+00
        40         4        2.726015e-02
        41         4       -1.845802e+00
        42         4       -5.236616e-01
        43         4       -1.713250e-01
        44         4       -3.836895e-01
        45         4        2.067201e-01
        46         4       -1.516530e+00
        47         4        9.188307e-01
        48         4       -2.700228e-01
        49         4        4.922583e-01
        50         4       -2.081416e+00
        51         4        5.896158e-02
        52         4        6.837260e-01
        53         4       -6.241292e-01
        54         4       -8.952818e-01
        55         4       -4.569331e-01
        56         4       -1.822958e+00
        57         4        6.117556e-01
        58         4       -7.455880e-01
        59         4       -1.695685e+00
        60         4       -4.904782e-01
        61         4        7.775243e-01
        62         4       -1.032690e+00
        63         4       -8.412469e-02
        64         4       -6.307187e-01
        65         4        2.070585e-01
        66         4        1.118259e+00
        67         4        1.478049e+00
        68         4       -1.714364e-01
        69         4       -7.839027e-01
        70         4        4.748628e-02
        71         4        2.060959e-01
        72         4        1.509841e+00
        73         4       -5.031056e-01
        74         4       -7.102175e-01
        75         4       -1.920267e-01
        76         4        1.079778e-01
        77         4       -1.607683e+00
        78         4        6.051250e-02
        79         4        8.866197e-02
        80         4        1.302842e-01
        81         4        4.709199e-01
        82         4        6.041129e-01
        83         4       -6.602610e-01
        84         4        1.347534e+00
        85         4       -1.778888e-01
        86         4        2.171591e+00
        87         4        3.970462e-01
        88         4       -3.535383e-01
        89         4        8.841256e-02
        90         4       -8.275515e-01
        91         4       -5.155399e-01
        92         4       -1.969436e+00
        93         4       -9.222058e-01
        94         4       -4.981637e-01
        95         4       -1.909998e+00
        96         4       -6.543480e-01
        97         4       -5.677004e-01
        98         4       -1.817642e+00
        99         4        9.990474e-01
       100         4        9.620915e-01
         1         5       -1.135599e+00
         2         5       -1.108607e+00
         3         5       -7.581079e-01
         4         5        2.960471e-02
         5         5        1.224359e+00
         6         5       -6.728054e-01
         7         5        1.030890e+00
         8         5       -5.673404e-01
         9         5        1.569259e-01
        10         5        6.389814e-01
        11         5        1.084330e+00
        12         5        7.018246e-02
        13         5        1.993056e+00
        14         5       -1.958230e+00
        15         5       -1.009761e-01
        16         5       -2.044871e-02
        17         5       -2.432646e-01
        18         5        1.129822e+00
        19         5       -2.302374e-01
        20         5        8.321826e-01
        21         5        7.064297e-01
        22         5        3.152534e-01
        23         5       -1.808944e+00
        24         5       -1.222519e-02
        25         5        3.654516e-01
        26         5        7.174050e-01
        27         5       -9.478967e-01
        28         5       -7.317033e-01
        29         5        2.815396e-01
        30         5        1.088849e+00
        31         5       -2.114235e+00
        32         5        8.946089e-01
        33         5       -1.301616e-01
        34         5       -1.092651e+00
        35         5       -2.070050e-01
        36         5       -7.284988e-01
        37         5       -1.396152e+00
        38         5        1.411744e+00
        39         5        8.550243e-01
        40         5        5.566777e-01
        41         5       -1.069569e+00
        42         5        1.076638e+00
        43         5        3.438394e-01
        44         5        1.543072e+00
        45         5        2.221669e-01
        46         5        2.565684e-01
        47         5        2.680696e-02
        48         5       -4.920078e-01
        49         5       -1.300285e+00
        50         5        3.496137e-01
        51         5        4.474055e-01
        52         5        1.290708e+00
        53         5       -1.164214e-01
        54         5       -5.055009e-01
        55         5        1.536095e+00
        56         5       -1.701707e+00
        57         5        3.814910e-01
        58         5        5.433887e-01
        59         5       -9.028351e-01
        60         5        1.745567e-01
        61         5       -2.171260e+00
        62         5        1.144157e+00
        63         5        6.529491e-01
        64         5       -1.936792e-01
        65         5        8.955671e-01
        66         5        1.721145e+00
        67         5       -3.665770e-01
        68         5       -3.929069e-01
        69         5        1.023290e+00
        70         5        3.308557e-01
        71         5       -2.815825e-01
        72         5       -6.845341e-02
        73         5        6.419191e-01
        74         5        8.115267e-01
        75         5        1.023189e-01
        76         5        5.862004e-01
        77         5        4.470421e-01
        78         5       -3.613913e-01
        79         5       -1.697384e+00
        80         5        8.599773e-01
        81         5       -8.199091e-01
        82         5       -1.056345e+00
        83         5       -3.872541e-04
        84         5       -9.813509e-01
        85         5       -1.213838e+00
        86         5       -1.069541e+00
        87         5       -2.783864e-01
        88         5        1.164303e+00
        89         5       -9.156366e-01
        90         5       -1.750055e+00
        91         5        9.314459e-01
        92         5        1.254332e+00
        93         5       -1.281618e+00
        94         5       -9.319423e-01
        95         5        4.645736e-01
        96         5        1.565139e+00
        97         5        4.706740e-01
        98         5        1.140503e+00
        99         5       -7.693519e-01
       100         5        1.221051e+00
;

param theta:=
    1        1.797293e-02
    2       -6.528046e-01
    3       -2.099970e+00
    4        4.535054e-02
    5       -1.118091e+00
;
param X_true:=
    1       -1.934462e-01
    2        9.380123e-01
    3       -2.852969e-01
    4       -4.053480e+00
    5        6.373481e-01
    6       -1.105529e+00
    7       -3.586553e+00
    8        2.335651e+00
    9        1.836066e+00
   10        2.390875e+00
   11       -2.916667e+00
   12       -7.076233e-01
   13       -2.009479e+00
   14        3.208481e+00
   15        4.267592e-01
   16       -3.066960e+00
   17       -2.189514e+00
   18       -3.249143e+00
   19       -5.364044e+00
   20       -1.962503e+00
   21       -2.566362e+00
   22        1.378578e+00
   23        3.771964e+00
   24        1.158040e-01
   25        2.937713e+00
   26       -1.711116e+00
   27       -2.582557e+00
   28        2.942717e+00
   29       -4.879775e+00
   30       -2.704003e+00
   31        2.343973e+00
   32        3.170116e+00
   33       -8.996069e-01
   34        8.106948e-01
   35        4.801829e-01
   36        1.585560e+00
   37        3.811754e+00
   38       -1.985420e+00
   39        2.553822e-01
   40        3.182952e+00
   41       -1.052097e+00
   42       -3.741651e+00
   43        1.957440e+00
   44       -2.574017e+00
   45        1.476152e+00
   46       -7.672801e-01
   47        2.137549e-01
   48       -1.592439e+00
   49       -1.371916e+00
   50       -6.999381e-02
   51       -1.991324e-01
   52       -1.980495e+00
   53        1.915062e+00
   54        1.494476e-01
   55       -1.596138e+00
   56        8.288057e+00
   57       -1.323427e+00
   58       -1.088767e+00
   59        1.283088e+00
   60       -3.172706e+00
   61        3.988249e+00
   62       -5.838057e+00
   63       -5.051111e+00
   64        2.634010e-01
   65       -2.552496e+00
   66       -2.193755e+00
   67        2.988043e+00
   68       -3.084895e+00
   69       -5.542042e-01
   70        3.246068e+00
   71       -3.506149e-01
   72        2.466763e+00
   73       -2.893134e+00
   74        1.545716e-01
   75        1.431845e+00
   76       -4.674491e-01
   77        1.667469e+00
   78        1.448091e+00
   79       -1.702694e+00
   80        9.809723e-01
   81        1.774749e+00
   82        2.154975e+00
   83        4.923214e-01
   84       -1.305465e+00
   85       -1.053510e+00
   86       -6.821663e-02
   87        2.338889e+00
   88        3.580391e-01
   89        7.715105e-01
   90       -4.202733e+00
   91        8.991204e-01
   92        3.678850e-01
   93        2.402199e+00
   94       -3.733257e+00
   95       -6.517420e-01
   96       -1.881537e+00
   97        1.020670e+00
   98       -9.385096e-01
   99       -1.397421e+00
  100        2.351266e+00
;
param X:=
    1       -1.934462e-01
    2        9.380123e-01
    3       -2.852969e-01
    4       -4.053480e+00
    5        6.373481e-01
    6        1.511798e+00
    7       -3.586553e+00
    8        2.335651e+00
    9        1.836066e+00
   10        2.390875e+00
   11       -2.916667e+00
   12       -7.076233e-01
   13       -1.209125e+00
   14        3.208481e+00
   15        1.416330e+00
   16       -3.066960e+00
   17       -2.189514e+00
   18       -3.249143e+00
   19       -5.364044e+00
   20       -1.962503e+00
   21       -2.566362e+00
   22        1.378578e+00
   23        3.771964e+00
   24        1.158040e-01
   25        2.937713e+00
   26       -1.711116e+00
   27       -2.582557e+00
   28        2.942717e+00
   29       -4.879775e+00
   30       -2.704003e+00
   31        2.343973e+00
   32        3.170116e+00
   33       -8.996069e-01
   34        8.106948e-01
   35        4.801829e-01
   36        1.585560e+00
   37       -2.149092e+00
   38       -1.985420e+00
   39        2.553822e-01
   40        3.182952e+00
   41       -1.052097e+00
   42       -4.106708e-02
   43        1.957440e+00
   44       -2.574017e+00
   45        1.476152e+00
   46       -7.672801e-01
   47        2.137549e-01
   48       -1.592439e+00
   49       -1.371916e+00
   50       -6.999381e-02
   51       -1.991324e-01
   52       -1.980495e+00
   53        1.915062e+00
   54        1.494476e-01
   55       -1.596138e+00
   56        8.288057e+00
   57       -1.323427e+00
   58       -1.088767e+00
   59        1.283088e+00
   60        5.646308e-01
   61        3.988249e+00
   62       -5.838057e+00
   63       -5.509324e-01
   64        2.634010e-01
   65       -2.552496e+00
   66       -4.142936e-01
   67        2.988043e+00
   68       -3.084895e+00
   69       -5.542042e-01
   70        3.246068e+00
   71       -3.506149e-01
   72        2.466763e+00
   73       -2.893134e+00
   74        1.545716e-01
   75        1.431845e+00
   76       -4.674491e-01
   77        1.667469e+00
   78        1.448091e+00
   79       -1.702694e+00
   80        9.809723e-01
   81        1.774749e+00
   82        2.154975e+00
   83        4.923214e-01
   84       -1.305465e+00
   85       -1.053510e+00
   86       -6.821663e-02
   87        2.338889e+00
   88        3.580391e-01
   89        7.715105e-01
   90       -4.202733e+00
   91        8.991204e-01
   92        3.678850e-01
   93        2.402199e+00
   94       -3.733257e+00
   95       -6.040687e-01
   96       -1.881537e+00
   97        1.020670e+00
   98       -9.385096e-01
   99       -1.786322e+00
  100        2.351266e+00
;
param outliervec:=
    1    0
    2    0
    3    0
    4    0
    5    0
    6    1
    7    0
    8    0
    9    0
   10    0
   11    0
   12    0
   13    1
   14    0
   15    1
   16    0
   17    0
   18    0
   19    0
   20    0
   21    0
   22    0
   23    0
   24    0
   25    0
   26    0
   27    0
   28    0
   29    0
   30    0
   31    0
   32    0
   33    0
   34    0
   35    0
   36    0
   37    1
   38    0
   39    0
   40    0
   41    0
   42    1
   43    0
   44    0
   45    0
   46    0
   47    0
   48    0
   49    0
   50    0
   51    0
   52    0
   53    0
   54    0
   55    0
   56    0
   57    0
   58    0
   59    0
   60    1
   61    0
   62    0
   63    1
   64    0
   65    0
   66    1
   67    0
   68    0
   69    0
   70    0
   71    0
   72    0
   73    0
   74    0
   75    0
   76    0
   77    0
   78    0
   79    0
   80    0
   81    0
   82    0
   83    0
   84    0
   85    0
   86    0
   87    0
   88    0
   89    0
   90    0
   91    0
   92    0
   93    0
   94    0
   95    1
   96    0
   97    0
   98    0
   99    1
  100    0
;